33D32945 STP File, STP Format Version 1.0

SECTION Comments
Name "shell_n10_d4_s19"
Problem "Euclidean Steiner Tree Problem"
Remark "Generated with STPGenerator. 4 dimensions."
END

SECTION Graph
Nodes 10
END

SECTION Coordinates
DDDD 0 -0.7431110972 0.4534922887 -0.4479571397 0.2036296694
DDDD 1 -0.4228993168 -0.6376913823 0.6416723859 -0.0525587098
DDDD 2 -0.4552887754 0.0539914192 0.8477513968 0.2666732587
DDDD 3 -0.8467776705 -0.4680211743 0.0286480679 -0.2512031953
DDDD 4 0.8762101187 0.2665080029 -0.4013231563 0.0130014051
DDDD 5 -0.3784739416 -0.2163618332 -0.8103312729 -0.3915459881
DDDD 6 0.4283254058 0.7590067258 -0.0068074112 0.4903058190
DDDD 7 -0.4956903557 -0.7790931920 -0.3277654358 -0.1996864754
DDDD 8 -0.2251329585 -0.5816313850 0.6454570393 -0.4409141564
DDDD 9 0.5491823549 -0.6731899157 -0.4861065295 -0.0944167385
END
